TYPE : Vertex Cover
DIMENSION: 31
EDGE_DATA_SECTION:
0 11
0 14
0 16
0 18
0 20
1 16
1 19
1 26
2 7
2 9
2 10
2 15
2 24
2 30
3 9
3 11
3 15
3 18
3 20
3 25
3 26
3 28
3 29
4 7
4 12
4 15
4 22
4 27
4 28
5 6
5 9
5 15
5 16
5 27
6 9
6 11
6 24
6 26
6 29
7 8
7 10
7 22
7 23
7 24
7 27
7 28
8 17
8 20
8 22
8 28
8 30
9 12
9 18
10 23
10 25
10 26
10 28
11 12
11 14
11 19
11 21
11 23
11 28
12 19
12 26
12 29
12 30
13 14
13 17
13 20
13 21
13 23
14 15
14 18
14 22
14 23
14 25
15 22
15 26
16 17
16 20
16 24
16 26
16 27
16 29
16 30
17 28
18 27
19 20
19 21
19 26
19 29
19 30
20 23
20 27
20 28
21 24
21 27
21 29
22 24
23 25
23 27
23 29
23 30
24 26
26 27
26 29
26 30
-1
VERTEX_DEGREE:
5.0 3.0 6.0 9.0 6.0 5.0 6.0 9.0 6.0 6.0 6.0 9.0 7.0 5.0 8.0 7.0 10.0 4.0 5.0 8.0 9.0 6.0 6.0 10.0 7.0 4.0 12.0 9.0 8.0 8.0 7.0
VERTEX_COVER:
2 3 4 5 6 7 8 10 11 12 14 16 17 18 19 20 21 22 23 26
EOF
